RT is False
Default write of storage_offers_DA.csv just to have a file (but constraint should be inactive)
Reading model...
...model read.
creating competitive generators file...
...competitive generators recorded.
Loading data...
.. day-ahead data with real-time VRE data read.
Compiling instance...
...instance created.
Creating Offer Mitigation (model will solve as dispatch if TRUE)...
NOTE: storage offers will not be mitigated
...storage offer mitigation file created
Converting model to MPEC...
...converted
NOTE: initial MIP solve with only storage competitive to get feasible solution
Solving...

Welcome to IBM(R) ILOG(R) CPLEX(R) Interactive Optimizer 12.9.0.0
  with Simplex, Mixed Integer & Barrier Optimizers
5725-A06 5725-A29 5724-Y48 5724-Y49 5724-Y54 5724-Y55 5655-Y21
Copyright IBM Corp. 1988, 2019.  All Rights Reserved.

Type 'help' for a list of available commands.
Type 'help' followed by a command name for more
information on commands.

CPLEX> Logfile 'cplex.log' closed.
Logfile 'C:\Users\llavin\Desktop\test826\logs\tmpquamr0zi.cplex.log' open.
CPLEX> New value for parallel optimization mode: -1
CPLEX> New value for emphasis for MIP optimization: 1
CPLEX> New value for mixed integer optimality gap tolerance: 0.01
CPLEX> New value for integrality tolerance: 1e-12
CPLEX> New value for deterministic time limit in ticks: 75000
CPLEX> Problem 'C:\Users\llavin\Desktop\test826\logs\tmplbdz1y8c.pyomo.lp' read.
Read time = 0.22 sec. (13.92 ticks)
CPLEX> Problem name         : C:\Users\llavin\Desktop\test826\logs\tmplbdz1y8c.pyomo.lp
Objective sense      : Maximize
Variables            :   53809  [Nneg: 1,  Box: 22004,  Free: 4464,
                                 Binary: 27340]
Objective nonzeros   :    8980
Linear constraints   :  123253  [Less: 41346,  Greater: 59096,  Equal: 22811]
  Nonzeros           :  293289
  RHS nonzeros       :   67491

Variables            : Min LB: -5000.000        Max UB: 1000000.       
Objective nonzeros   : Min   : 0.008333333      Max   : 820.8667       
Linear constraints   :
  Nonzeros           : Min   : 0.008333333      Max   : 1000000.       
  RHS nonzeros       : Min   : 0.008333333      Max   : 1000000.       
CPLEX> CPXPARAM_Parallel                                -1
CPXPARAM_Emphasis_MIP                            1
CPXPARAM_DetTimeLimit                            75000
CPXPARAM_MIP_Tolerances_MIPGap                   0.01
CPXPARAM_MIP_Tolerances_Integrality              9.9999999999999998e-13
Tried aggregator 4 times.
MIP Presolve eliminated 88643 rows and 18901 columns.
MIP Presolve added 3403 rows and 0 columns.
MIP Presolve modified 24852 coefficients.
Aggregator did 13012 substitutions.
Reduced MIP has 25001 rows, 21342 columns, and 71334 nonzeros.
Reduced MIP has 8427 binaries, 0 generals, 0 SOSs, and 0 indicators.
Presolve time = 0.33 sec. (193.69 ticks)
Probing fixed 409 vars, tightened 4651 bounds.
Probing time = 0.08 sec. (19.43 ticks)
Tried aggregator 2 times.
MIP Presolve eliminated 922 rows and 819 columns.
MIP Presolve modified 3041 coefficients.
Aggregator did 38 substitutions.
Reduced MIP has 24041 rows, 20485 columns, and 68552 nonzeros.
Reduced MIP has 8018 binaries, 0 generals, 0 SOSs, and 0 indicators.
Presolve time = 0.11 sec. (89.26 ticks)
Probing fixed 0 vars, tightened 325 bounds.
Probing time = 0.14 sec. (23.03 ticks)
Clique table members: 43487.
MIP emphasis: integer feasibility.
MIP search method: dynamic search.
Parallel mode: opportunistic, using up to 32 threads.
Root relaxation solution time = 0.41 sec. (609.89 ticks)

        Nodes                                         Cuts/
   Node  Left     Objective  IInf  Best Integer    Best Bound    ItCnt     Gap

      0     0     7200.7321   145                   7200.7321     5100         
      0     0     7195.2191    15                    Cuts: 30     5118         
*     0+    0                         6942.8057     7195.2191             3.64%
      0     0     7193.1192    13     6942.8057      Cuts: 11     5122    3.61%
      0     0     7189.9518    14     6942.8057      Cuts: 40     5126    3.56%

Repeating presolve.
Tried aggregator 3 times.
MIP Presolve eliminated 10517 rows and 8079 columns.
MIP Presolve modified 15468 coefficients.
Aggregator did 149 substitutions.
Reduced MIP has 13375 rows, 12252 columns, and 40061 nonzeros.
Reduced MIP has 4568 binaries, 0 generals, 0 SOSs, and 0 indicators.
Presolve time = 0.09 sec. (57.85 ticks)
Probing fixed 403 vars, tightened 23986 bounds.
Probing time = 0.16 sec. (69.28 ticks)
Cover probing fixed 21 vars, tightened 1553 bounds.
Tried aggregator 3 times.
MIP Presolve eliminated 4967 rows and 4788 columns.
MIP Presolve modified 3145 coefficients.
Aggregator did 64 substitutions.
Reduced MIP has 8344 rows, 7400 columns, and 26490 nonzeros.
Reduced MIP has 2708 binaries, 0 generals, 0 SOSs, and 0 indicators.
Presolve time = 0.05 sec. (28.14 ticks)
Probing fixed 48 vars, tightened 3721 bounds.
Probing time = 0.06 sec. (21.42 ticks)
Cover probing fixed 15 vars, tightened 113 bounds.
Tried aggregator 2 times.
MIP Presolve eliminated 255 rows and 209 columns.
MIP Presolve modified 1955 coefficients.
Aggregator did 4 substitutions.
Reduced MIP has 8085 rows, 7187 columns, and 25807 nonzeros.
Reduced MIP has 2618 binaries, 0 generals, 0 SOSs, and 0 indicators.
Presolve time = 0.02 sec. (14.63 ticks)
Probing fixed 11 vars, tightened 2433 bounds.
Probing time = 0.03 sec. (12.33 ticks)
Cover probing fixed 2 vars, tightened 116 bounds.
Tried aggregator 2 times.
MIP Presolve eliminated 50 rows and 44 columns.
MIP Presolve modified 1836 coefficients.
Aggregator did 2 substitutions.
Reduced MIP has 8033 rows, 7141 columns, and 25591 nonzeros.
Reduced MIP has 2605 binaries, 0 generals, 0 SOSs, and 0 indicators.
Presolve time = 0.03 sec. (21.59 ticks)
Represolve time = 0.59 sec. (266.63 ticks)
Probing fixed 39 vars, tightened 4854 bounds.
Probing time = 0.03 sec. (10.07 ticks)
Cover probing fixed 22 vars, tightened 300 bounds.
Clique table members: 3691.
MIP emphasis: integer feasibility.
MIP search method: dynamic search.
Parallel mode: opportunistic, using up to 32 threads.
Root relaxation solution time = 0.13 sec. (132.51 ticks)

        Nodes                                         Cuts/
   Node  Left     Objective  IInf  Best Integer    Best Bound    ItCnt     Gap

*     0+    0                         6942.8057     7189.9518             3.56%
      0     0     7189.9518    34     6942.8057     7189.9518     7047    3.56%
      0     0     7179.8994    14     6942.8057     Cuts: 126     7090    3.41%
      0     0     7172.6457    11     6942.8057      Cuts: 20     7114    3.31%
      0     0     7158.3418    15     6942.8057       Cuts: 9     7124    3.10%
*     0+    0                         7025.1595     7158.3418             1.90%
      0     2     7158.3418    15     7025.1595       Cuts: 2     7124    1.90%
Elapsed time = 4.70 sec. (2537.63 ticks, tree = 0.02 MB, solutions = 2)

Clique cuts applied:  1
Implied bound cuts applied:  4
Flow cuts applied:  19
Mixed integer rounding cuts applied:  13
Lift and project cuts applied:  9
Gomory fractional cuts applied:  19

Root node processing (before b&c):
  Real time             =    4.12 sec. (2535.32 ticks)
Parallel b&c, 32 threads:
  Real time             =    0.66 sec. (96.45 ticks)
  Sync time (average)   =    0.29 sec.
  Wait time (average)   =    0.00 sec.
                          ------------
Total (root+branch&cut) =    4.78 sec. (2631.76 ticks)

Solution pool: 2 solutions saved.

MIP - Integer optimal, tolerance (0.01/1e-06):  Objective =  7.0251595336e+03
Current MIP best bound =  7.0849272643e+03 (gap = 59.7677, 0.85%)
Solution time =    4.80 sec.  Iterations = 7153  Nodes = 8 (8)
Deterministic time = 2631.92 ticks  (548.66 ticks/sec)

CPLEX> Incumbent solution written to file 'C:\Users\llavin\Desktop\test826\logs\tmpkwrobxp3.cplex.sol'.
CPLEX> NOTE: no warmstart specified for MIP iteration, default behavior is true
NOTE: resolving with all competitive generators using storage-only solution to warmstart
Solving...

Welcome to IBM(R) ILOG(R) CPLEX(R) Interactive Optimizer 12.9.0.0
  with Simplex, Mixed Integer & Barrier Optimizers
5725-A06 5725-A29 5724-Y48 5724-Y49 5724-Y54 5724-Y55 5655-Y21
Copyright IBM Corp. 1988, 2019.  All Rights Reserved.

Type 'help' for a list of available commands.
Type 'help' followed by a command name for more
information on commands.

CPLEX> Logfile 'cplex.log' closed.
Logfile 'C:\Users\llavin\Desktop\test826\logs\tmp9yo280w9.cplex.log' open.
CPLEX> New value for parallel optimization mode: -1
CPLEX> New value for emphasis for MIP optimization: 1
CPLEX> New value for mixed integer optimality gap tolerance: 0.01
CPLEX> New value for integrality tolerance: 1e-12
CPLEX> New value for deterministic time limit in ticks: 75000
CPLEX> Problem 'C:\Users\llavin\Desktop\test826\logs\tmpymof3ji5.pyomo.lp' read.
Read time = 0.24 sec. (13.94 ticks)
CPLEX> MIP start file 'C:\Users\llavin\Desktop\test826\logs\tmp6j8w3o8o.cplex.mst' read.
CPLEX> Problem name         : C:\Users\llavin\Desktop\test826\logs\tmpymof3ji5.pyomo.lp
Objective sense      : Maximize
Variables            :   54529  [Nneg: 1,  Box: 22724,  Free: 4464,
                                 Binary: 27340]
Objective nonzeros   :    9676
Linear constraints   :  123253  [Less: 41346,  Greater: 59096,  Equal: 22811]
  Nonzeros           :  293289
  RHS nonzeros       :   67491

Variables            : Min LB: -5000.000        Max UB: 1000000.       
Objective nonzeros   : Min   : 0.008333333      Max   : 778.7167       
Linear constraints   :
  Nonzeros           : Min   : 0.008333333      Max   : 1000000.       
  RHS nonzeros       : Min   : 0.008333333      Max   : 1000000.       
CPLEX> CPXPARAM_Parallel                                -1
CPXPARAM_Emphasis_MIP                            1
CPXPARAM_DetTimeLimit                            75000
CPXPARAM_MIP_Tolerances_MIPGap                   0.01
CPXPARAM_MIP_Tolerances_Integrality              9.9999999999999998e-13
Warning:  No solution found from 1 MIP starts.
Retaining values of one MIP start for possible repair.
Tried aggregator 4 times.
MIP Presolve eliminated 88643 rows and 19621 columns.
MIP Presolve added 3403 rows and 0 columns.
MIP Presolve modified 24852 coefficients.
Aggregator did 13012 substitutions.
Reduced MIP has 25001 rows, 21342 columns, and 71334 nonzeros.
Reduced MIP has 8427 binaries, 0 generals, 0 SOSs, and 0 indicators.
Presolve time = 0.33 sec. (194.10 ticks)
Probing fixed 409 vars, tightened 4651 bounds.
Probing time = 0.08 sec. (19.43 ticks)
Tried aggregator 2 times.
MIP Presolve eliminated 922 rows and 819 columns.
MIP Presolve modified 3041 coefficients.
Aggregator did 38 substitutions.
Reduced MIP has 24041 rows, 20485 columns, and 68552 nonzeros.
Reduced MIP has 8018 binaries, 0 generals, 0 SOSs, and 0 indicators.
Presolve time = 0.11 sec. (89.26 ticks)
Probing fixed 0 vars, tightened 325 bounds.
Probing time = 0.14 sec. (23.03 ticks)
Clique table members: 43487.
MIP emphasis: integer feasibility.
MIP search method: dynamic search.
Parallel mode: opportunistic, using up to 32 threads.
Root relaxation solution time = 0.47 sec. (688.15 ticks)

        Nodes                                         Cuts/
   Node  Left     Objective  IInf  Best Integer    Best Bound    ItCnt     Gap

      0     0   165054.4580   335                 165054.4580     6204         
      0     0   162337.9738   381                   Cuts: 275     6577         
      0     0   160500.4933   365                   Cuts: 183     6869         
      0     0   159793.6884   375                   Cuts: 117     6991         
Repair heuristic found nothing.
      0     2   159793.6884   375                     Cuts: 7     6991         
Elapsed time = 4.86 sec. (2016.17 ticks, tree = 0.02 MB, solutions = 0)
    539   185   153122.9224   202                 157432.7148     9646         
   1088   541   152764.5177   209                 157312.6794    15011         
   1655  1050    infeasible                       157312.6794    23562         
   2257  1430   111333.3043   129                 157312.6794    31093         
   2828  2044    infeasible                       157312.6794    49936         
   3350  2592    infeasible                       157312.6794    67997         
   3933  3163    20972.8256    86                 157312.6794    83542         
   4537  3048    30046.6829    98                 157312.6794    80812         
   5119  3690     9649.5383    67                 157312.6794    91093         
   7388  5341    10375.9214   101                 156943.5740   148632         
Elapsed time = 22.08 sec. (5118.47 ticks, tree = 133.77 MB, solutions = 0)
   9862  7343    77950.3583   158                 156943.5740   231344         
  12026  8167   -67197.8588   106                 156943.5740   268192         
  14247 10569    infeasible                       156943.5740   365914         
  16271 11360   -98691.4362   116                 156943.5740   399981         
  18375 13068    89882.0683   157                 156943.5740   479976         
  20416 15305    36998.8766   129                 156943.5740   606489         
  22414 15431    infeasible                       156943.5740   614167         
  24479 15806    35034.2605   121                 156943.5740   634456         
  26554 17532  -247152.4177   171                 156943.5740   723591         
  28643 19133    74675.7834   134                 156943.5740   828010         
Elapsed time = 71.44 sec. (14657.52 ticks, tree = 322.32 MB, solutions = 0)
  30683 20664   -72708.0911    99                 156943.5740   924187         
  32581 20556    92419.0821   232                 156943.5740   917957         
  34537 23293    infeasible                       156943.5740  1120031         
  36541 23155    70518.6302   101                 156943.5740  1106975         
  38449 24401    48937.9691   106                 156466.8273  1193835         
  40380 25344    45034.6610   144                 156118.1380  1258854         
  42386 26151    10754.4804   141                 156118.1380  1314134         
  44447 27177  -258442.5652   100                 156118.1380  1425526         
  46489 29472    35601.7486   121                 156118.1380  1638155         
  48436 29804    infeasible                       156118.1380  1675948         
Elapsed time = 117.88 sec. (24199.78 ticks, tree = 401.90 MB, solutions = 0)
  50436 30611    infeasible                       140488.5472  1776886         
  52467 31479    80412.1837   215                 137644.9582  1878642         
  54698 32174    48159.9655   173                 137548.5511  1936245         
  56871 33344    79265.6888   134                 131583.0862  2021446         
  58856 34601   -13235.2504   204                 119355.1192  2146842         
  60750 34434    41781.3255   174                 108178.1409  2128131         
  62627 35671  -206215.0000   107                 108178.1409  2239612         
  64687 36795  -193426.5315   180                 108178.1409  2314736         
  66726 37279    86685.7872   224                 108178.1409  2350488         
  68758 38858    63181.2715   130                 108178.1409  2464539         
Elapsed time = 173.16 sec. (33738.31 ticks, tree = 650.28 MB, solutions = 0)
  70818 40916  -507385.5039   136                 108178.1409  2646087         
  72790 40684   -38895.8435   171                 108178.1409  2624370         
  74868 40680    78778.6282   208                 108178.1409  2628064         
  76891 40934   -41673.4328   149                 108178.1409  2646841         
  79067 41708    70788.2119   137                 108178.1409  2719748         
  81334 42344    68237.8573   128                 108178.1409  2785313         
  83681 42473    20277.4890   133                 108178.1409  2799795         
  85907 44622    infeasible                       108178.1409  3006952         
  88103 46368    infeasible                       108178.1409  3162460         
  90272 46517   -50847.2883   169                 108178.1409  3176571         
Elapsed time = 230.05 sec. (43278.68 ticks, tree = 696.86 MB, solutions = 0)
  92460 49396    37061.0935    68                 108178.1409  3393505         
  94695 47934   -76646.9468   156                 108178.1409  3278846         
  96936 49071    infeasible                       108178.1409  3367968         
  99128 51541    infeasible                       108178.1409  3559957         
 101411 50895    35972.3574   122                 108178.1409  3513465         
 103623 50286    33363.7773    89                 108178.1409  3462013         
 105914 51897    infeasible                       108178.1409  3594751         
 108262 51933    infeasible                       108178.1409  3596964         
 110584 56638    38150.4770   152                 108178.1409  3959164         
 113013 55778  -209986.1455   158                 108178.1409  3890853         
Elapsed time = 284.19 sec. (52820.37 ticks, tree = 758.49 MB, solutions = 0)
 115446 55920    infeasible                       108178.1409  3899640         
 117839 58568    40949.7390    86                 108178.1409  4129641         
 120034 57219     6023.8189    95                 108178.1409  4009310         
 122280 55763    20794.7624   108                 108178.1409  3884161         
 124526 61321   -13530.7956   100                 108178.1409  4345026         
 126832 60443    infeasible                       108178.1409  4278413         
 129278 58793    infeasible                       108178.1409  4157295         
 131827 62011    11633.8308    51                 108178.1409  4402628         
 134539 59959    31056.1148    61                 108178.1409  4232276         
 137335 62878    35370.4838    40                 108178.1409  4456622         
Elapsed time = 352.73 sec. (62360.03 ticks, tree = 800.07 MB, solutions = 0)
 140097 68458    infeasible                       108178.1409  4698545         
 143065 67872    38306.0977    41                 108178.1409  4670779         
 145962 68008    34847.5873    42                 108178.1409  4686967         
 149128 64255    infeasible                       108178.1409  4525387         
 152165 65614    infeasible                       108178.1409  4572100         
 155331 71533    infeasible                       108178.1409  4785142         
 158610 70053    38447.8510    41                 108178.1409  4741609         
 161476 71092    34800.3170    43                 108178.1409  4777153         
 163910 70677    38272.6193    42                 108178.1409  4756864         
 166027 70721    34420.1618    41                 108178.1409  4758434         
Elapsed time = 388.48 sec. (71899.71 ticks, tree = 869.44 MB, solutions = 0)
 167892 70807    37176.4986    42                 108178.1409  4758478         
 169056 72787    33812.2776    43                 108178.1409  4815172         
 169913 73492    38306.0977    40                 108178.1409  4832477         

Cover cuts applied:  53
Implied bound cuts applied:  13
Flow cuts applied:  371
Mixed integer rounding cuts applied:  9

Root node processing (before b&c):
  Real time             =    2.88 sec. (1959.30 ticks)
Parallel b&c, 32 threads:
  Real time             =  388.50 sec. (73049.02 ticks)
  Sync time (average)   =    1.04 sec.
  Wait time (average)   =    0.00 sec.
                          ------------
Total (root+branch&cut) =  391.38 sec. (75008.31 ticks)


MIP - Deterministic time limit exceeded, no integer solution.
Current MIP best bound =  1.0817814086e+05 (gap is infinite)
Solution time =  391.38 sec.  Iterations = 5006282  Nodes = 170004 (81784)
Deterministic time = 75008.47 ticks  (191.65 ticks/sec)

CPLEX> CPLEX Error  1217: No solution exists.
No file written.
CPLEX> gap is infinite, so writing 0
Exporting results... 
